44 60
4 6 4
4 3 1
5 10 2
8 6 1
10 4 2
9 8 1
8 7 2
2 5 1
9 6 2
3 9 1
9 7 1
5 5 1
4 1 1
2 9 2
7 4 3
1 4 1
10 2 1
3 4 1
3 8 1
6 5 2
1 2 1
4 10 1
9 5 1
3 2 1
10 1 1
7 10 2
7 7 1
6 7 1
2 2 1
8 3 1
2 6 2
3 1 1
8 10 1
4 8 1
8 8 1
1 7 1
7 6 2
3 5 1
1 5 3
10 5 1
8 2 1
5 4 1
4 5 1
4 7 1
30 30 
30 30 
30 30 
30 30 
30 30 
30 30 
30 30 
30 30 
30 30 
30 30 
30 30 
30 30 
30 30 
30 30 
30 30 
30 30 
30 30 
30 30 
30 30 
30 30 
30 30 
30 30 
30 30 
30 30 
30 30 
30 30 
30 30 
30 30 
30 30 
30 30 
30 30 
30 30 
30 30 
30 30 
30 30 
30 30 
30 30 
30 30 
30 30 
30 30 
30 30 
30 30 
30 30 
30 30 
30 30 
30 30 
30 30 
30 30 
30 30 
30 30 
30 30 
30 30 
30 30 
30 30 
30 30 
30 30 
30 30 
30 30 
30 30 
30 30 
